language ESSENCE' 1.0
$ loaded file: carseqdata/csplib-instance-25
letting numcars=200
letting numclasses=24
letting numoptions=5
letting optMax=[1, 2, 1, 2, 1]
letting windowSize=[2, 3, 3, 5, 5]
letting numberPerClass=[1, 42, 3, 3, 36, 9, 4, 2, 3, 6, 2, 4, 1, 2, 2, 44, 8, 10, 1, 1, 2, 2, 11, 1]
letting optionsRequired=[[1, 1, 0, 0, 1], [0, 0, 0, 1, 0], [0, 1, 0, 0, 1], [1, 0, 0, 0, 1], [1, 0, 0, 0, 0], [1, 1, 0, 0, 0], [0, 0, 1, 1, 0], [0, 0, 0, 1, 1], [1, 0, 0, 1, 0], [0, 1, 1, 0, 0], [0, 0, 1, 1, 1], [1, 1, 1, 0, 0], [0, 1, 1, 1, 1], [0, 1, 1, 1, 0], [1, 0, 1, 1, 0], [0, 1, 0, 0, 0], [0, 0, 0, 0, 1], [0, 1, 0, 1, 0], [1, 0, 1, 0, 0], [1, 1, 1, 0, 1], [1, 1, 0, 1, 0], [0, 1, 0, 1, 1], [0, 0, 1, 0, 0], [0, 0, 1, 0, 1]]
